c *********************************
c * Circuit generated by BenCGen
c *
c * CarrySaveAdder_31_31_31_31_32
c *
c * Ports with 1 gate(s): 2
c * Ports with 2 gate(s): 156
c * Total gates: 158
c *********************************
p cnf 251 534
1 158 0
-1 -158 0
1 -157 0
158 -157 0
-1 -158 157 0
157 -125 0
-157 125 0
1 32 -159 0
-1 32 159 0
1 -32 159 0
-1 -32 -159 0
159 63 -94 0
-159 63 94 0
159 -63 94 0
-159 -63 -94 0
63 -160 0
159 -160 0
-63 -159 160 0
32 -161 0
1 -161 0
-32 -1 161 0
-160 126 0
-161 126 0
160 161 -126 0
2 33 -162 0
-2 33 162 0
2 -33 162 0
-2 -33 -162 0
162 64 -95 0
-162 64 95 0
162 -64 95 0
-162 -64 -95 0
64 -163 0
162 -163 0
-64 -162 163 0
33 -164 0
2 -164 0
-33 -2 164 0
-163 127 0
-164 127 0
163 164 -127 0
3 34 -165 0
-3 34 165 0
3 -34 165 0
-3 -34 -165 0
165 65 -96 0
-165 65 96 0
165 -65 96 0
-165 -65 -96 0
65 -166 0
165 -166 0
-65 -165 166 0
34 -167 0
3 -167 0
-34 -3 167 0
-166 128 0
-167 128 0
166 167 -128 0
4 35 -168 0
-4 35 168 0
4 -35 168 0
-4 -35 -168 0
168 66 -97 0
-168 66 97 0
168 -66 97 0
-168 -66 -97 0
66 -169 0
168 -169 0
-66 -168 169 0
35 -170 0
4 -170 0
-35 -4 170 0
-169 129 0
-170 129 0
169 170 -129 0
5 36 -171 0
-5 36 171 0
5 -36 171 0
-5 -36 -171 0
171 67 -98 0
-171 67 98 0
171 -67 98 0
-171 -67 -98 0
67 -172 0
171 -172 0
-67 -171 172 0
36 -173 0
5 -173 0
-36 -5 173 0
-172 130 0
-173 130 0
172 173 -130 0
6 37 -174 0
-6 37 174 0
6 -37 174 0
-6 -37 -174 0
174 68 -99 0
-174 68 99 0
174 -68 99 0
-174 -68 -99 0
68 -175 0
174 -175 0
-68 -174 175 0
37 -176 0
6 -176 0
-37 -6 176 0
-175 131 0
-176 131 0
175 176 -131 0
7 38 -177 0
-7 38 177 0
7 -38 177 0
-7 -38 -177 0
177 69 -100 0
-177 69 100 0
177 -69 100 0
-177 -69 -100 0
69 -178 0
177 -178 0
-69 -177 178 0
38 -179 0
7 -179 0
-38 -7 179 0
-178 132 0
-179 132 0
178 179 -132 0
8 39 -180 0
-8 39 180 0
8 -39 180 0
-8 -39 -180 0
180 70 -101 0
-180 70 101 0
180 -70 101 0
-180 -70 -101 0
70 -181 0
180 -181 0
-70 -180 181 0
39 -182 0
8 -182 0
-39 -8 182 0
-181 133 0
-182 133 0
181 182 -133 0
9 40 -183 0
-9 40 183 0
9 -40 183 0
-9 -40 -183 0
183 71 -102 0
-183 71 102 0
183 -71 102 0
-183 -71 -102 0
71 -184 0
183 -184 0
-71 -183 184 0
40 -185 0
9 -185 0
-40 -9 185 0
-184 134 0
-185 134 0
184 185 -134 0
10 41 -186 0
-10 41 186 0
10 -41 186 0
-10 -41 -186 0
186 72 -103 0
-186 72 103 0
186 -72 103 0
-186 -72 -103 0
72 -187 0
186 -187 0
-72 -186 187 0
41 -188 0
10 -188 0
-41 -10 188 0
-187 135 0
-188 135 0
187 188 -135 0
11 42 -189 0
-11 42 189 0
11 -42 189 0
-11 -42 -189 0
189 73 -104 0
-189 73 104 0
189 -73 104 0
-189 -73 -104 0
73 -190 0
189 -190 0
-73 -189 190 0
42 -191 0
11 -191 0
-42 -11 191 0
-190 136 0
-191 136 0
190 191 -136 0
12 43 -192 0
-12 43 192 0
12 -43 192 0
-12 -43 -192 0
192 74 -105 0
-192 74 105 0
192 -74 105 0
-192 -74 -105 0
74 -193 0
192 -193 0
-74 -192 193 0
43 -194 0
12 -194 0
-43 -12 194 0
-193 137 0
-194 137 0
193 194 -137 0
13 44 -195 0
-13 44 195 0
13 -44 195 0
-13 -44 -195 0
195 75 -106 0
-195 75 106 0
195 -75 106 0
-195 -75 -106 0
75 -196 0
195 -196 0
-75 -195 196 0
44 -197 0
13 -197 0
-44 -13 197 0
-196 138 0
-197 138 0
196 197 -138 0
14 45 -198 0
-14 45 198 0
14 -45 198 0
-14 -45 -198 0
198 76 -107 0
-198 76 107 0
198 -76 107 0
-198 -76 -107 0
76 -199 0
198 -199 0
-76 -198 199 0
45 -200 0
14 -200 0
-45 -14 200 0
-199 139 0
-200 139 0
199 200 -139 0
15 46 -201 0
-15 46 201 0
15 -46 201 0
-15 -46 -201 0
201 77 -108 0
-201 77 108 0
201 -77 108 0
-201 -77 -108 0
77 -202 0
201 -202 0
-77 -201 202 0
46 -203 0
15 -203 0
-46 -15 203 0
-202 140 0
-203 140 0
202 203 -140 0
16 47 -204 0
-16 47 204 0
16 -47 204 0
-16 -47 -204 0
204 78 -109 0
-204 78 109 0
204 -78 109 0
-204 -78 -109 0
78 -205 0
204 -205 0
-78 -204 205 0
47 -206 0
16 -206 0
-47 -16 206 0
-205 141 0
-206 141 0
205 206 -141 0
17 48 -207 0
-17 48 207 0
17 -48 207 0
-17 -48 -207 0
207 79 -110 0
-207 79 110 0
207 -79 110 0
-207 -79 -110 0
79 -208 0
207 -208 0
-79 -207 208 0
48 -209 0
17 -209 0
-48 -17 209 0
-208 142 0
-209 142 0
208 209 -142 0
18 49 -210 0
-18 49 210 0
18 -49 210 0
-18 -49 -210 0
210 80 -111 0
-210 80 111 0
210 -80 111 0
-210 -80 -111 0
80 -211 0
210 -211 0
-80 -210 211 0
49 -212 0
18 -212 0
-49 -18 212 0
-211 143 0
-212 143 0
211 212 -143 0
19 50 -213 0
-19 50 213 0
19 -50 213 0
-19 -50 -213 0
213 81 -112 0
-213 81 112 0
213 -81 112 0
-213 -81 -112 0
81 -214 0
213 -214 0
-81 -213 214 0
50 -215 0
19 -215 0
-50 -19 215 0
-214 144 0
-215 144 0
214 215 -144 0
20 51 -216 0
-20 51 216 0
20 -51 216 0
-20 -51 -216 0
216 82 -113 0
-216 82 113 0
216 -82 113 0
-216 -82 -113 0
82 -217 0
216 -217 0
-82 -216 217 0
51 -218 0
20 -218 0
-51 -20 218 0
-217 145 0
-218 145 0
217 218 -145 0
21 52 -219 0
-21 52 219 0
21 -52 219 0
-21 -52 -219 0
219 83 -114 0
-219 83 114 0
219 -83 114 0
-219 -83 -114 0
83 -220 0
219 -220 0
-83 -219 220 0
52 -221 0
21 -221 0
-52 -21 221 0
-220 146 0
-221 146 0
220 221 -146 0
22 53 -222 0
-22 53 222 0
22 -53 222 0
-22 -53 -222 0
222 84 -115 0
-222 84 115 0
222 -84 115 0
-222 -84 -115 0
84 -223 0
222 -223 0
-84 -222 223 0
53 -224 0
22 -224 0
-53 -22 224 0
-223 147 0
-224 147 0
223 224 -147 0
23 54 -225 0
-23 54 225 0
23 -54 225 0
-23 -54 -225 0
225 85 -116 0
-225 85 116 0
225 -85 116 0
-225 -85 -116 0
85 -226 0
225 -226 0
-85 -225 226 0
54 -227 0
23 -227 0
-54 -23 227 0
-226 148 0
-227 148 0
226 227 -148 0
24 55 -228 0
-24 55 228 0
24 -55 228 0
-24 -55 -228 0
228 86 -117 0
-228 86 117 0
228 -86 117 0
-228 -86 -117 0
86 -229 0
228 -229 0
-86 -228 229 0
55 -230 0
24 -230 0
-55 -24 230 0
-229 149 0
-230 149 0
229 230 -149 0
25 56 -231 0
-25 56 231 0
25 -56 231 0
-25 -56 -231 0
231 87 -118 0
-231 87 118 0
231 -87 118 0
-231 -87 -118 0
87 -232 0
231 -232 0
-87 -231 232 0
56 -233 0
25 -233 0
-56 -25 233 0
-232 150 0
-233 150 0
232 233 -150 0
26 57 -234 0
-26 57 234 0
26 -57 234 0
-26 -57 -234 0
234 88 -119 0
-234 88 119 0
234 -88 119 0
-234 -88 -119 0
88 -235 0
234 -235 0
-88 -234 235 0
57 -236 0
26 -236 0
-57 -26 236 0
-235 151 0
-236 151 0
235 236 -151 0
27 58 -237 0
-27 58 237 0
27 -58 237 0
-27 -58 -237 0
237 89 -120 0
-237 89 120 0
237 -89 120 0
-237 -89 -120 0
89 -238 0
237 -238 0
-89 -237 238 0
58 -239 0
27 -239 0
-58 -27 239 0
-238 152 0
-239 152 0
238 239 -152 0
28 59 -240 0
-28 59 240 0
28 -59 240 0
-28 -59 -240 0
240 90 -121 0
-240 90 121 0
240 -90 121 0
-240 -90 -121 0
90 -241 0
240 -241 0
-90 -240 241 0
59 -242 0
28 -242 0
-59 -28 242 0
-241 153 0
-242 153 0
241 242 -153 0
29 60 -243 0
-29 60 243 0
29 -60 243 0
-29 -60 -243 0
243 91 -122 0
-243 91 122 0
243 -91 122 0
-243 -91 -122 0
91 -244 0
243 -244 0
-91 -243 244 0
60 -245 0
29 -245 0
-60 -29 245 0
-244 154 0
-245 154 0
244 245 -154 0
30 61 -246 0
-30 61 246 0
30 -61 246 0
-30 -61 -246 0
246 92 -123 0
-246 92 123 0
246 -92 123 0
-246 -92 -123 0
92 -247 0
246 -247 0
-92 -246 247 0
61 -248 0
30 -248 0
-61 -30 248 0
-247 155 0
-248 155 0
247 248 -155 0
31 62 -249 0
-31 62 249 0
31 -62 249 0
-31 -62 -249 0
249 93 -124 0
-249 93 124 0
249 -93 124 0
-249 -93 -124 0
93 -250 0
249 -250 0
-93 -249 250 0
62 -251 0
31 -251 0
-62 -31 251 0
-250 156 0
-251 156 0
250 251 -156 0
